NAME : 10_3_3_3_(15).dat
COMMENT : Henke, Speranza, Wäscher, 2015
TYPE : MCVRP
DIMENSION : 11
EDGE_WEIGHT_TYPE : DISTANCE_MATRIX
CAPACITY : 1000
VEHICLES : 2
PRODUCT TYPES : 3
COMPARTMENTS : 3
NODE_COORD_SECTION
1 50 50
2 4.54 60.14
3 17.95 63.17
4 96.37 41.21
5 65.36 70.82
6 1.33 86.53
7 46.18 25.8
8 6.73 15.8
9 73.99 54.77
10 5.04 87.26
11 87.93 68.59
DEMAND_SECTION
1 0 0 0
2 70 64 27
3 110 14 32
4 50 60 19
5 28 51 41
6 23 11 14
7 68 26 36
8 37 62 21
9 25 4 37
10 158 66 15
11 103 47 26
DEPOT_SECTION
1
EOF